k = 18;
b = 9;
AtomicConstraints =  [|
2, 10|
	2, 3|
	2, 5|
	3, 10|
	4, 10|
	4, 3|
	4, 5|
	4, 7|
	5, 10|
	6, 10|
	6, 5|
	6, 7|
	11, 17|
	15, 17|
	15, 18|
	13, 17|
	13, 18|];
DisjunctiveConstraints =  [|4, 6, 4, 2|
	5, 7, 5, 3|
	15, 13, 15, 11|
	16, 14, 16, 12|];
SoftAtomicConstraints =  [|
4, 2|
5, 3|
6, 4|
7, 5|
9, 8|
10, 9|
15, 11|
16, 12|
11, 14|
13, 15|
14, 16|
18, 17|];
DirectSuccessors =  [];
